NAME: instance_9
TYPE: TSP
COMMENT: 9-city problem
DIMENSION: 9
EDGE_WEIGHT_TYPE: EUC_2D
NODE_COORD_SECTION
0 198 623
1 495 88
2 480 38
3 342 524
4 466 401
5 314 953
6 678 274
7 686 266
8 323 735
EOF
